pseudo-Boolean proof version 1.0
u >= 0 ;
l 1
l 2
l 3
l 4
l 5
l 6
l 7
l 8
l 9
l 10
l 11
l 12
l 13
l 14
l 15
l 16
l 17
l 18
l 19
l 20
l 21
l 22
l 23
l 24
l 25
l 26
l 27
l 28
l 29
l 30
l 31
l 32
l 33
l 34
l 35
l 36
l 37
l 38
l 39
l 40
l 41
l 42
l 43
l 44
l 45
l 46
l 47
l 48
l 49
l 50
l 51
l 52
l 53
l 54
l 55
l 56
l 57
l 58
l 59
l 60
l 61
l 62
l 63
l 64
l 65
l 66
l 67
l 68
l 69
l 70
l 71
l 72
l 73
l 74
l 75
l 76
l 77
l 78
l 79
l 80
l 81
l 82
l 83
l 84
l 85
l 86
l 87
l 88
l 89
l 90
l 91
l 92
l 93
l 94
l 95
l 96
l 97
l 98
l 99
l 100
l 101
l 102
l 103
l 104
l 105
l 106
l 107
l 108
l 109
l 110
l 111
l 112
l 113
l 114
l 115
l 116
l 117
l 118
l 119
l 120
l 121
l 122
l 123
l 124
l 125
l 126
l 127
l 128
l 129
l 130
l 131
l 132
l 133
l 134
l 135
l 136
l 137
l 138
l 139
l 140
l 141
l 142
l 143
l 144
l 145
l 146
l 147
l 148
l 149
l 150
l 151
l 152
l 153
l 154
l 155
l 156
l 157
l 158
l 159
l 160
l 161
l 162
l 163
l 164
l 165
l 166
l 167
l 168
l 169
l 170
l 171
l 172
l 173
l 174
l 175
l 176
l 177
l 178
l 179
l 180
l 181
l 182
l 183
l 184
l 185
l 186
l 187
l 188
l 189
l 190
l 191
l 192
l 193
l 194
l 195
l 196
l 197
l 198
l 199
l 200
l 201
l 202
l 203
l 204
l 205
l 206
l 207
l 208
l 209
l 210
l 211
l 212
l 213
l 214
l 215
l 216
l 217
l 218
l 219
l 220
l 221
l 222
l 223
l 224
l 225
l 226
l 227
l 228
l 229
l 230
l 231
l 232
l 233
l 234
l 235
l 236
l 237
l 238
l 239
l 240
l 241
l 242
l 243
l 244
l 245
l 246
l 247
l 248
l 249
l 250
l 251
l 252
l 253
l 254
l 255
l 256
l 257
l 258
l 259
l 260
l 261
l 262
l 263
l 264
l 265
l 266
l 267
l 268
l 269
l 270
l 271
l 272
l 273
p 140 274 + 0
p 85 275 + 107 + 0
p 56 276 + 168 + 35 + x12 + x10 + x8 + x27 + x29 + x31 + x32 + s 0
p 134 275 + 200 + 23 + 12 + x23 + x32 + x31 + x29 + x28 + x27 + x20 + x12 + x11 + s 0
p 26 274 + 57 + 231 + 17 + 276 3 * + 278 4 * + 277 8 * + 175 16 * + s 28 16 * + s x32 3 * + x29 3 * + x23 3 * + x31 2 * + x27 2 * + x26 + x20 + x16 + x28 + s 0
p 172 275 + 0
p 40 280 + 0
p 280 118 + 45 + 231 + 281 + 281 + 57 3 * + 134 3 * + 168 3 * + ~x10 + x27 2 * + x11 2 * + x3 2 * + x21 + x16 + s 0
p 184 276 + 0
p 35 283 + 0
p 56 283 + 168 + 35 + x8 + x27 + x29 + x31 + x32 + s 0
p 281 200 + 12 + 284 + x32 + x31 + x29 + x2 + x11 + x21 + 0
p 282 286 2 d + 285 + s 279 2 * + s 270 2 * + s x27 + s 0
p 231 283 + 281 + x1 + x2 + x25 + x21 + x32 + x29 + x23 + 0
p 236 280 + 127 + 0
p 276 118 + 184 + 231 + 289 + 289 + 288 2 d + 57 3 * + 134 4 * + x12 4 * + x27 3 * + x21 + x3 + x23 + x29 + s 0
p 127 283 + 0
p 289 280 + 200 2 * + 23 + 12 2 * + 291 3 * + x29 3 * + x23 3 * + x2 2 * + x21 2 * + x31 + x28 + x32 + 0
p 274 184 + 164 + 75 + 280 + 200 2 * + 23 2 * + 12 2 * + x19 2 * + x25 2 * + x27 2 * + x32 + x31 + x28 + x2 + x22 + x12 + x29 + x30 + x23 + s 0
p 274 126 + 193 + 184 + 131 + 281 2 * + 231 3 * + 107 + 143 + 283 3 * + 293 6 * + 290 12 * + 292 5 d 10 * + x27 15 * + x12 15 * + x19 5 * + x23 3 * + x29 3 * + x32 3 * + x15 + s 3 d 0
p 274 75 + 193 + 118 + 131 + 276 3 * + 246 4 * + 284 2 * + x19 5 * + x27 5 * + x23 3 * + x10 3 * + x29 2 * + x31 + x12 + x7 + x15 + x16 + x28 + x30 + 0
p 275 184 + 131 + 281 + 200 2 * + 23 + 12 2 * + 295 6 d 3 * + x12 2 * + x27 2 * + x14 2 * + x31 + x23 + x29 + x28 + x19 + x2 + x8 + x32 + s 0
p 2 274 + 0
